%
% Generated Sudoku 16x16
% Density approximation: 0.50
%
x = array2d(1..n, 1..n, [
  11,   _,   6,   _,   _,   _,  10,   _,  12,   _,   7,  15,   3,   _,   _,   _,
  16,   9,   _,   _,   3,  15,   2,   _,   1,  14,   _,  13,   5,   _,   _,   4,
  13,   7,  15,   _,  14,   _,   _,   1,   _,   4,   _,   5,   _,   _,   9,  12,
   _,   _,   4,   _,   7,   _,  11,   _,   6,   3,   _,   8,  13,  15,   _,  10,
  14,  10,   _,   _,  15,   7,   _,  16,  11,   _,   6,   _,   4,   _,   5,   1,
  15,   4,  16,   _,   _,   _,   _,  14,   5,   1,   8,   7,   6,   3,   _,  11,
   _,   _,   _,   _,   5,   2,   4,   3,  16,   _,   _,   9,   _,   _,  15,   7,
   9,   _,   _,   _,  11,   _,   _,   6,   _,   _,   _,   2,   _,   8,   _,  16,
   4,   _,   _,   _,   9,   _,  16,   _,   _,   _,  10,   _,   _,   5,   _,   2,
   7,   2,   _,   _,   6,  14,  12,   _,   _,   _,   _,  11,  16,   _,   8,   _,
   _,  13,   8,   _,   2,   _,   _,  15,   _,   5,  16,   _,   _,   _,   _,   _,
   _,   _,   1,   _,   4,   _,   5,   _,   _,   9,  13,   6,  14,   _,  11,  15,
   _,  16,   9,   6,   _,  11,  15,   _,   _,   8,   5,  10,   2,   _,   _,   3,
   2,   _,   _,   _,   _,   _,   _,   _,  13,   _,  15,  14,   _,  12,   _,   _,
   8,   _,   _,  14,  10,   _,   7,   4,   9,   2,   _,   _,   _,   _,  13,   _,
   5,   _,  13,   _,   _,  12,   _,   _,   _,   _,   3,   1,   _,   _,   _,   6
]);

n = 16;
